sat
((|B0| false))
((|B1| false))
((|B10| false))
((|B11| false))
((|B12| false))
((|B13| false))
((|B14| false))
((|B15| false))
((|B16| false))
((|B17| false))
((|B18| false))
((|B19| false))
((|B2| true))
((|B20| false))
((|B21| false))
((|B22| false))
((|B23| false))
((|B24| false))
((|B25| false))
((|B26| true))
((|B27| false))
((|B28| false))
((|B29| false))
((|B3| false))
((|B30| false))
((|B31| false))
((|B32| false))
((|B33| false))
((|B34| true))
((|B35| true))
((|B36| true))
((|B37| true))
((|B38| true))
((|B39| true))
((|B4| false))
((|B40| true))
((|B41| true))
((|B42| false))
((|B43| false))
((|B44| true))
((|B45| true))
((|B46| false))
((|B47| true))
((|B48| false))
((|B49| false))
((|B5| false))
((|B6| false))
((|B7| false))
((|B8| false))
((|B9| false))
((|__CPROVER_dead_object#1| #x00000000))
((|__CPROVER_dead_object#1$wclk$8| (- 17)))
((|__CPROVER_deallocated#1| #x00000000))
((|__CPROVER_deallocated#1$wclk$8| (- 16)))
((|__CPROVER_malloc_is_new_array#1| false))
((|__CPROVER_malloc_is_new_array#1$wclk$8| (- 15)))
((|__CPROVER_malloc_object#1| #x00000000))
((|__CPROVER_malloc_object#1$wclk$8| (- 14)))
((|__CPROVER_malloc_size#1| #x00000000))
((|__CPROVER_malloc_size#1$wclk$8| (- 13)))
((|__CPROVER_memory_leak#1| #x00000000))
((|__CPROVER_memory_leak#1$wclk$8| (- 12)))
((|__CPROVER_next_thread_id#1| #x00000000))
((|__CPROVER_next_thread_id#1$wclk$8| (- 11)))
((|__CPROVER_next_thread_id#2| #x00000001))
((|__CPROVER_next_thread_id#2$wclk$8| (- 6)))
((|__CPROVER_next_thread_id#3| #x00000000))
((|__CPROVER_next_thread_id#3$rclk$8| (- 1)))
((|__CPROVER_pipe_count#1| #x00000000))
((|__CPROVER_pipe_count#1$wclk$8| (- 10)))
((|__CPROVER_rounding_mode!0#1| #x00000000))
((|__CPROVER_rounding_mode!1#1| #x00000000))
((|__CPROVER_thread_id!0#1| #x00000000))
((|__CPROVER_thread_id!1#1| #x00000000))
((|__CPROVER_thread_id!1#2| #x00000000))
((|__CPROVER_threads_exited#1| ((as const (Array (_ BitVec 32) Bool)) false)))
((|__CPROVER_threads_exited#1$wclk$8| (- 9)))
((|__CPROVER_threads_exited#2| ((as const (Array (_ BitVec 32) Bool)) false)))
((|__CPROVER_threads_exited#2$rclk$8| 0))
((|__CPROVER_threads_exited#3| ((as const (Array (_ BitVec 32) Bool)) false)))
((|__CPROVER_threads_exited#3$rclk$8| (- 3)))
((|__CPROVER_threads_exited#4| (store ((as const (Array (_ BitVec 32) Bool)) false) #x00000000 true)))
((|__CPROVER_threads_exited#4$wclk$8| 1))
((|goto_symex::&92;guard#1| false))
((|goto_symex::&92;guard#2| false))
((|goto_symex::&92;guard#3| true))
((|goto_symex::&92;guard#4| false))
((|goto_symex::&92;guard#5| true))
((|goto_symex::&92;guard#6| true))
((|main#return_value!0#1| #x00000000))
((|main#return_value!1#1| #x00000000))
((|main::1::key!0@1| #x00000000))
((|main::1::key!0@1#1| #x00000000))
((|main::1::key!0@1#1$wclk$8| (- 8)))
((|main::1::r!0@1#1| #x00000000))
((|main::1::r!0@1#2| #x00000000))
((|main::1::r!0@1#3| #xffffffff))
((|main::1::tid!0@1| #x00000000))
((|main::1::tid!0@1#1| #x00000000))
((|main::1::tid!0@1#1$wclk$8| (- 7)))
((|main::1::tid!0@1#2| #x00000001))
((|main::1::tid!0@1#2$wclk$8| (- 5)))
((|main::1::tid!0@1#3| #x00000000))
((|main::1::tid!0@1#3$rclk$8| (- 3)))
((|main::1::tid!0@1#4| #x00000000))
((|main::1::tid!0@1#4$rclk$8| (- 2)))
((|memory_model::choice_rf_0_14_0_10_F_5| false))
((|memory_model::choice_rf_0_14_0_12_F_6| false))
((|memory_model::choice_rf_0_15_0_10_F_7| false))
((|memory_model::choice_rf_0_15_0_12_F_8| false))
((|memory_model::choice_rf_0_16_0_11_T_4| false))
((|memory_model::choice_rf_0_16_0_6_T_3| false))
((|memory_model::choice_rf_0_17_0_8_T_0| false))
((|memory_model::choice_rf_0_17_1_1_T_1| false))
((|memory_model::choice_rf_1_0_0_8_T_2| false))
((|memory_model::choice_ws-ext_0_8_1_1_T_9| true))
((|nondet_symex::nondet0| #x00000000))
((|nondet_symex::nondet1| #xffffffff))
((|nondet_symex::nondet2| #x00000000))
((|nondet_symex::nondet3| #xffffffff))
((|pthread_create#return_value!0#1| #x00000000))
((|pthread_create#return_value!1#1| #x00000000))
((|pthread_create::1::this_thread_id!0@1#1| #x00000000))
((|pthread_create::1::this_thread_id!0@1#2| #x00000001))
((|pthread_create::1::this_thread_id!1@0#0| #x00000000))
((|pthread_create::arg!0@1#1| #x04000000))
((|pthread_create::arg!1@0#1| #x04000000))
((|pthread_create::attr!0@1#1| #x00000000))
((|pthread_create::attr!1@0#1| #x00000000))
((|pthread_create::start_routine!0@1#1| #x03000000))
((|pthread_create::start_routine!1@0#1| #x03000000))
((|pthread_create::thread!0@1#1| #x02000000))
((|pthread_create::thread!1@0#1| #x02000000))
((|pthread_join#return_value!0#0| #x00000000))
((|pthread_join#return_value!0#1| #x00000003))
((|pthread_join#return_value!0#2| #x00000000))
((|pthread_join#return_value!0#3| #x00000023))
((|pthread_join#return_value!0#4| #x00000000))
((|pthread_join#return_value!0#5| #x00000000))
((|pthread_join#return_value!0#6| #x00000023))
((|pthread_join#return_value!0#7| #x00000023))
((|pthread_join#return_value!1#1| #x00000000))
((|pthread_join::thread!0@1#1| #x00000000))
((|pthread_join::value_ptr!0@1#1| #x00000000))
((|pthread_key_create#return_value!1#1| #x00000000))
((|pthread_setspecific#return_value!1#1| #x00000000))
((|return'!0#1| #x00000000))
((|symex::io::0| #x00000000))
((|t1$13$spwnclk$8| (- 4)))
((|worker#return_value!1#1| #x00000000))
((|worker#return_value!1#2| #x00000000))
((|worker::1::key!1@1#1| #x00000000))
((|worker::1::key!1@1#2| #x04000000))
((|worker::1::r!1@1#1| #x00000000))
((|worker::1::r!1@1#2| #xffffffff))
((|worker::k!1@1#1| #x04000000))
(model 
  (define-fun |memory_model::choice_rf_0_16_0_6_T_3| () Bool
    false)
  (define-fun |__CPROVER_threads_exited#3$rclk$8| () Int
    (- 3))
  (define-fun |memory_model::choice_rf_1_0_0_8_T_2| () Bool
    false)
  (define-fun |pthread_create::1::this_thread_id!1@0#0| () (_ BitVec 32)
    #x00000000)
  (define-fun |memory_model::choice_rf_0_16_0_11_T_4| () Bool
    false)
  (define-fun |memory_model::choice_rf_0_14_0_10_F_5| () Bool
    false)
  (define-fun |main::1::tid!0@1#3$rclk$8| () Int
    (- 3))
  (define-fun |memory_model::choice_rf_0_15_0_10_F_7| () Bool
    false)
  (define-fun |memory_model::choice_rf_0_15_0_12_F_8| () Bool
    false)
  (define-fun |__CPROVER_threads_exited#1$wclk$8| () Int
    (- 9))
  (define-fun |memory_model::choice_rf_0_17_1_1_T_1| () Bool
    false)
  (define-fun |main::1::tid!0@1#4$rclk$8| () Int
    (- 2))
  (define-fun |__CPROVER_threads_exited#3| () (Array (_ BitVec 32) Bool)
    ((as const (Array (_ BitVec 32) Bool)) false))
  (define-fun |__CPROVER_threads_exited#2$rclk$8| () Int
    0)
  (define-fun |main::1::key!0@1#1$wclk$8| () Int
    (- 8))
  (define-fun |__CPROVER_threads_exited#4$wclk$8| () Int
    1)
  (define-fun |memory_model::choice_rf_0_17_0_8_T_0| () Bool
    false)
  (define-fun |main::1::tid!0@1#2$wclk$8| () Int
    (- 5))
  (define-fun |__CPROVER_next_thread_id#2$wclk$8| () Int
    (- 6))
  (define-fun |memory_model::choice_rf_0_14_0_12_F_6| () Bool
    false)
  (define-fun |main::1::tid!0@1#1$wclk$8| () Int
    (- 7))
  (define-fun t1$13$spwnclk$8 () Int
    (- 4))
  (define-fun |__CPROVER_next_thread_id#3$rclk$8| () Int
    (- 1))
  (define-fun |memory_model::choice_ws-ext_0_8_1_1_T_9| () Bool
    true)
  (define-fun |__CPROVER_pipe_count#1$wclk$8| () Int
    (- 10))
  (define-fun |__CPROVER_next_thread_id#1$wclk$8| () Int
    (- 11))
  (define-fun |__CPROVER_memory_leak#1$wclk$8| () Int
    (- 12))
  (define-fun |__CPROVER_malloc_size#1$wclk$8| () Int
    (- 13))
  (define-fun |__CPROVER_malloc_object#1$wclk$8| () Int
    (- 14))
  (define-fun |__CPROVER_malloc_is_new_array#1$wclk$8| () Int
    (- 15))
  (define-fun |__CPROVER_deallocated#1$wclk$8| () Int
    (- 16))
  (define-fun |__CPROVER_dead_object#1$wclk$8| () Int
    (- 17))
  (define-fun |nondet_symex::nondet3| () (_ BitVec 32)
    #xffffffff)
  (define-fun |nondet_symex::nondet1| () (_ BitVec 32)
    #xffffffff)
  (define-fun |nondet_symex::nondet0| () (_ BitVec 32)
    #x00000000)
  (define-fun |symex::io::0| () (_ BitVec 32)
    #x00000000)
  (define-fun |nondet_symex::nondet2| () (_ BitVec 32)
    #x00000000)
  (define-fun |goto_symex::&92;guard#6| () Bool
    true)
  (define-fun |main::1::tid!0@1#4| () (_ BitVec 32)
    #x00000000)
  (define-fun |goto_symex::&92;guard#5| () Bool
    true)
  (define-fun |__CPROVER_next_thread_id#3| () (_ BitVec 32)
    #x00000000)
  (define-fun |goto_symex::&92;guard#4| () Bool
    false)
  (define-fun |pthread_join::thread!0@1#1| () (_ BitVec 32)
    #x00000000)
  (define-fun |goto_symex::&92;guard#3| () Bool
    true)
  (define-fun |goto_symex::&92;guard#1| () Bool
    false)
  (define-fun B49 () Bool
    false)
  (define-fun B48 () Bool
    false)
  (define-fun B47 () Bool
    true)
  (define-fun B46 () Bool
    false)
  (define-fun B45 () Bool
    true)
  (define-fun B44 () Bool
    true)
  (define-fun B43 () Bool
    false)
  (define-fun B42 () Bool
    false)
  (define-fun B41 () Bool
    true)
  (define-fun B40 () Bool
    true)
  (define-fun |worker::1::r!1@1#1| () (_ BitVec 32)
    #x00000000)
  (define-fun B39 () Bool
    true)
  (define-fun |worker::1::key!1@1#1| () (_ BitVec 32)
    #x00000000)
  (define-fun B38 () Bool
    true)
  (define-fun |pthread_create::1::this_thread_id!0@1#1| () (_ BitVec 32)
    #x00000000)
  (define-fun B37 () Bool
    true)
  (define-fun |main::1::tid!0@1#1| () (_ BitVec 32)
    #x00000000)
  (define-fun B36 () Bool
    true)
  (define-fun |main::1::r!0@1#1| () (_ BitVec 32)
    #x00000000)
  (define-fun B35 () Bool
    true)
  (define-fun |main::1::key!0@1#1| () (_ BitVec 32)
    #x00000000)
  (define-fun B34 () Bool
    true)
  (define-fun |__CPROVER_threads_exited#4| () (Array (_ BitVec 32) Bool)
    (store ((as const (Array (_ BitVec 32) Bool)) false) #x00000000 true))
  (define-fun |worker#return_value!1#2| () (_ BitVec 32)
    #x00000000)
  (define-fun |worker::1::r!1@1#2| () (_ BitVec 32)
    #xffffffff)
  (define-fun |worker::1::key!1@1#2| () (_ BitVec 32)
    #x04000000)
  (define-fun |worker::k!1@1#1| () (_ BitVec 32)
    #x04000000)
  (define-fun |__CPROVER_thread_id!1#2| () (_ BitVec 32)
    #x00000000)
  (define-fun |return'!0#1| () (_ BitVec 32)
    #x00000000)
  (define-fun |main#return_value!0#1| () (_ BitVec 32)
    #x00000000)
  (define-fun |pthread_join#return_value!0#7| () (_ BitVec 32)
    #x00000023)
  (define-fun |pthread_join#return_value!0#6| () (_ BitVec 32)
    #x00000023)
  (define-fun |pthread_join#return_value!0#5| () (_ BitVec 32)
    #x00000000)
  (define-fun |pthread_join#return_value!0#0| () (_ BitVec 32)
    #x00000000)
  (define-fun |pthread_join#return_value!0#4| () (_ BitVec 32)
    #x00000000)
  (define-fun |pthread_join#return_value!0#3| () (_ BitVec 32)
    #x00000023)
  (define-fun |pthread_join#return_value!0#2| () (_ BitVec 32)
    #x00000000)
  (define-fun |pthread_join#return_value!0#1| () (_ BitVec 32)
    #x00000003)
  (define-fun |pthread_join::value_ptr!0@1#1| () (_ BitVec 32)
    #x00000000)
  (define-fun |main::1::r!0@1#3| () (_ BitVec 32)
    #xffffffff)
  (define-fun |pthread_create#return_value!0#1| () (_ BitVec 32)
    #x00000000)
  (define-fun |pthread_key_create#return_value!1#1| () (_ BitVec 32)
    #x00000000)
  (define-fun |pthread_join#return_value!1#1| () (_ BitVec 32)
    #x00000000)
  (define-fun |main#return_value!1#1| () (_ BitVec 32)
    #x00000000)
  (define-fun |__CPROVER_thread_id!1#1| () (_ BitVec 32)
    #x00000000)
  (define-fun |__CPROVER_rounding_mode!1#1| () (_ BitVec 32)
    #x00000000)
  (define-fun |pthread_create#return_value!1#1| () (_ BitVec 32)
    #x00000000)
  (define-fun |worker#return_value!1#1| () (_ BitVec 32)
    #x00000000)
  (define-fun |pthread_setspecific#return_value!1#1| () (_ BitVec 32)
    #x00000000)
  (define-fun |pthread_create::arg!1@0#1| () (_ BitVec 32)
    #x04000000)
  (define-fun |pthread_create::start_routine!1@0#1| () (_ BitVec 32)
    #x03000000)
  (define-fun |pthread_create::attr!1@0#1| () (_ BitVec 32)
    #x00000000)
  (define-fun |pthread_create::thread!1@0#1| () (_ BitVec 32)
    #x02000000)
  (define-fun |goto_symex::&92;guard#2| () Bool
    false)
  (define-fun |main::1::tid!0@1#2| () (_ BitVec 32)
    #x00000001)
  (define-fun |pthread_create::1::this_thread_id!0@1#2| () (_ BitVec 32)
    #x00000001)
  (define-fun |__CPROVER_next_thread_id#2| () (_ BitVec 32)
    #x00000001)
  (define-fun |pthread_create::arg!0@1#1| () (_ BitVec 32)
    #x04000000)
  (define-fun |pthread_create::start_routine!0@1#1| () (_ BitVec 32)
    #x03000000)
  (define-fun |pthread_create::attr!0@1#1| () (_ BitVec 32)
    #x00000000)
  (define-fun |pthread_create::thread!0@1#1| () (_ BitVec 32)
    #x02000000)
  (define-fun |main::1::r!0@1#2| () (_ BitVec 32)
    #x00000000)
  (define-fun array_of.0 () (Array (_ BitVec 32) Bool)
    ((as const (Array (_ BitVec 32) Bool)) false))
  (define-fun |__CPROVER_threads_exited#1| () (Array (_ BitVec 32) Bool)
    ((as const (Array (_ BitVec 32) Bool)) false))
  (define-fun |__CPROVER_thread_id!0#1| () (_ BitVec 32)
    #x00000000)
  (define-fun |__CPROVER_rounding_mode!0#1| () (_ BitVec 32)
    #x00000000)
  (define-fun |__CPROVER_pipe_count#1| () (_ BitVec 32)
    #x00000000)
  (define-fun |__CPROVER_next_thread_id#1| () (_ BitVec 32)
    #x00000000)
  (define-fun |__CPROVER_memory_leak#1| () (_ BitVec 32)
    #x00000000)
  (define-fun |__CPROVER_malloc_size#1| () (_ BitVec 32)
    #x00000000)
  (define-fun |__CPROVER_malloc_object#1| () (_ BitVec 32)
    #x00000000)
  (define-fun |__CPROVER_malloc_is_new_array#1| () Bool
    false)
  (define-fun |__CPROVER_deallocated#1| () (_ BitVec 32)
    #x00000000)
  (define-fun |__CPROVER_dead_object#1| () (_ BitVec 32)
    #x00000000)
  (define-fun B33 () Bool
    false)
  (define-fun B32 () Bool
    false)
  (define-fun B31 () Bool
    false)
  (define-fun B30 () Bool
    false)
  (define-fun B29 () Bool
    false)
  (define-fun B28 () Bool
    false)
  (define-fun B27 () Bool
    false)
  (define-fun B26 () Bool
    true)
  (define-fun |__CPROVER_threads_exited#2| () (Array (_ BitVec 32) Bool)
    ((as const (Array (_ BitVec 32) Bool)) false))
  (define-fun B25 () Bool
    false)
  (define-fun B24 () Bool
    false)
  (define-fun B23 () Bool
    false)
  (define-fun B22 () Bool
    false)
  (define-fun B21 () Bool
    false)
  (define-fun B20 () Bool
    false)
  (define-fun B19 () Bool
    false)
  (define-fun B18 () Bool
    false)
  (define-fun B17 () Bool
    false)
  (define-fun B16 () Bool
    false)
  (define-fun B15 () Bool
    false)
  (define-fun B14 () Bool
    false)
  (define-fun B13 () Bool
    false)
  (define-fun B12 () Bool
    false)
  (define-fun B11 () Bool
    false)
  (define-fun B10 () Bool
    false)
  (define-fun B9 () Bool
    false)
  (define-fun B8 () Bool
    false)
  (define-fun B7 () Bool
    false)
  (define-fun B6 () Bool
    false)
  (define-fun B5 () Bool
    false)
  (define-fun B4 () Bool
    false)
  (define-fun B3 () Bool
    false)
  (define-fun B2 () Bool
    true)
  (define-fun B1 () Bool
    false)
  (define-fun B0 () Bool
    false)
  (define-fun |main::1::key!0@1| () (_ BitVec 32)
    #x00000000)
  (define-fun |main::1::tid!0@1| () (_ BitVec 32)
    #x00000000)
  (define-fun |main::1::tid!0@1#3| () (_ BitVec 32)
    #x00000000)
)
(:added-eqs                      3
 :arith-bound-propagations-cheap 1
 :arith-bound-propagations-lp    7
 :arith-lower                    8
 :arith-make-feasible            3
 :arith-max-columns              35
 :arith-max-rows                 19
 :arith-propagations             1
 :arith-upper                    8
 :array-ax1                      1
 :binary-propagations            107
 :bv->core-eq                    1
 :decisions                      202
 :del-clause                     8
 :eliminated-applications        21
 :eliminated-vars                7
 :final-checks                   1
 :max-memory                     3.36
 :memory                         2.80
 :mk-bool-var                    341
 :mk-clause                      143
 :num-allocs                     465792
 :num-checks                     1
 :propagations                   109
 :rlimit-count                   51707
 :time                           0.00
 :total-time                     0.02)

real	0m0.018s
user	0m0.012s
sys	0m0.006s
State: AC Run_time: 0.019953012466430664